x = 24;
y = 10;
c = 60;
n = 76;

p = [100  53  97  38  90  94  96  49  30  64  39  86  12  57  89  35  91  28  53  70  32  51  45  82  20  38  62  13  38  58  87  77  50  79  59  71  52  83  55  31  47  24  87  86  90  34  54  88  38  86  58  30  44  68  24  62  25  38  63  94  53  60  73  51  65  71  36  50  70  56  66  82  75  55  22  15];
w = [5  6  8  10  8  3  5  4  9  4  7  7  4  3  10  7  2  8  7  6  9  7  9  5  5  3  5  4  7  3  5  10  6  2  8  10  1  8  9  10  6  9  3  1  4  8  10  2  2  4  6  9  2  7  4  5  7  4  3  8  1  7  5  8  5  2  3  4  10  2  2  3  5  6  9  5];
s = [1  7  8  2  8  7  1  5  3  2  6  1  10  3  8  9  10  10  4  2  8  6  7  10  4  3  9  2  1  4  10  5  2  6  5  3  9  6  2  5  2  4  5  8  3  6  2  3  5  9  10  6  1  4  4  9  3  7  10  9  7  6  3  2  10  9  1  4  4  5  10  2  5  3  8  10];
